
;this file is automatically generated: Fri Oct 30 17:04:03 CST 2020

;declarations generated

(declare-fun oclExcludes ( Int Int) Bool)
(declare-fun Cardinality ( Int) Int)
(declare-fun oclSelect ( Int Bool) Int)
(declare-fun type_e8ce7099_b752_40e2_ae3e_81fc6f513b05_Class0 ( Int) Bool)
(declare-fun type_e8ce7099_b752_40e2_ae3e_81fc6f513b05_Class2 ( Int) Bool)
(declare-fun type_e8ce7099_b752_40e2_ae3e_81fc6f513b05_Class1 ( Int) Bool)
(declare-fun type_e8ce7099_b752_40e2_ae3e_81fc6f513b05_Class8 ( Int) Bool)
(declare-fun type_e8ce7099_b752_40e2_ae3e_81fc6f513b05_Class7 ( Int) Bool)
(declare-fun type_e8ce7099_b752_40e2_ae3e_81fc6f513b05_Class9 ( Int) Bool)
(declare-fun type_e8ce7099_b752_40e2_ae3e_81fc6f513b05_Class4 ( Int) Bool)
(declare-fun type_e8ce7099_b752_40e2_ae3e_81fc6f513b05_Class3 ( Int) Bool)
(declare-fun type_e8ce7099_b752_40e2_ae3e_81fc6f513b05_Class6 ( Int) Bool)
(declare-fun type_e8ce7099_b752_40e2_ae3e_81fc6f513b05_Class5 ( Int) Bool)
(declare-fun class38_Class38IntAttr0 ( Int) Int)
(declare-fun type_e8ce7099_b752_40e2_ae3e_81fc6f513b05_Class38 ( Int) Bool)
(declare-fun type_e8ce7099_b752_40e2_ae3e_81fc6f513b05_Class39 ( Int) Bool)
(declare-fun type_e8ce7099_b752_40e2_ae3e_81fc6f513b05_Class32 ( Int) Bool)
(declare-fun type_e8ce7099_b752_40e2_ae3e_81fc6f513b05_Class33 ( Int) Bool)
(declare-fun type_e8ce7099_b752_40e2_ae3e_81fc6f513b05_Class30 ( Int) Bool)
(declare-fun type_e8ce7099_b752_40e2_ae3e_81fc6f513b05_Class31 ( Int) Bool)
(declare-fun type_e8ce7099_b752_40e2_ae3e_81fc6f513b05_Class36 ( Int) Bool)
(declare-fun type_e8ce7099_b752_40e2_ae3e_81fc6f513b05_Class37 ( Int) Bool)
(declare-fun type_e8ce7099_b752_40e2_ae3e_81fc6f513b05_Class34 ( Int) Bool)
(declare-fun type_e8ce7099_b752_40e2_ae3e_81fc6f513b05_Class35 ( Int) Bool)
(declare-fun type_e8ce7099_b752_40e2_ae3e_81fc6f513b05_Class40 ( Int) Bool)
(declare-fun type_e8ce7099_b752_40e2_ae3e_81fc6f513b05_Class49 ( Int) Bool)
(declare-fun type_e8ce7099_b752_40e2_ae3e_81fc6f513b05_Class43 ( Int) Bool)
(declare-fun type_e8ce7099_b752_40e2_ae3e_81fc6f513b05_Class44 ( Int) Bool)
(declare-fun type_e8ce7099_b752_40e2_ae3e_81fc6f513b05_Class41 ( Int) Bool)
(declare-fun type_e8ce7099_b752_40e2_ae3e_81fc6f513b05_Class42 ( Int) Bool)
(declare-fun type_e8ce7099_b752_40e2_ae3e_81fc6f513b05_Class47 ( Int) Bool)
(declare-fun type_e8ce7099_b752_40e2_ae3e_81fc6f513b05_Class48 ( Int) Bool)
(declare-fun type_e8ce7099_b752_40e2_ae3e_81fc6f513b05_Class45 ( Int) Bool)
(declare-fun Enum0 ( Int) Int)
(declare-fun type_e8ce7099_b752_40e2_ae3e_81fc6f513b05_Class46 ( Int) Bool)
(declare-fun Enum1 ( Int) Int)
(declare-fun Enum2 ( Int) Int)
(declare-fun type_e8ce7099_b752_40e2_ae3e_81fc6f513b05_Class50 ( Int) Bool)
(declare-fun type_e8ce7099_b752_40e2_ae3e_81fc6f513b05_Class51 ( Int) Bool)
(declare-fun obj_bd4c14df_9ada_411d_a619_8f99913b70ad ( Int) Int)
(declare-fun type_e8ce7099_b752_40e2_ae3e_81fc6f513b05_Class18 ( Int) Bool)
(declare-fun type_e8ce7099_b752_40e2_ae3e_81fc6f513b05_Class19 ( Int) Bool)
(declare-fun type_e8ce7099_b752_40e2_ae3e_81fc6f513b05_Class16 ( Int) Bool)
(declare-fun type_e8ce7099_b752_40e2_ae3e_81fc6f513b05_Class17 ( Int) Bool)
(declare-fun type_e8ce7099_b752_40e2_ae3e_81fc6f513b05_Class10 ( Int) Bool)
(declare-fun type_e8ce7099_b752_40e2_ae3e_81fc6f513b05_Class11 ( Int) Bool)
(declare-fun type_e8ce7099_b752_40e2_ae3e_81fc6f513b05_Class14 ( Int) Bool)
(declare-fun type_e8ce7099_b752_40e2_ae3e_81fc6f513b05_Class15 ( Int) Bool)
(declare-fun type_e8ce7099_b752_40e2_ae3e_81fc6f513b05_Class12 ( Int) Bool)
(declare-fun type_e8ce7099_b752_40e2_ae3e_81fc6f513b05_Class13 ( Int) Bool)
(declare-fun container_ ( Int) Int)
(declare-fun type_e8ce7099_b752_40e2_ae3e_81fc6f513b05_Class29 ( Int) Bool)
(declare-fun type_e8ce7099_b752_40e2_ae3e_81fc6f513b05_Class27 ( Int) Bool)
(declare-fun type_e8ce7099_b752_40e2_ae3e_81fc6f513b05_Class28 ( Int) Bool)
(declare-fun type_e8ce7099_b752_40e2_ae3e_81fc6f513b05_Class21 ( Int) Bool)
(declare-fun type_e8ce7099_b752_40e2_ae3e_81fc6f513b05_Class22 ( Int) Bool)
(declare-fun type_e8ce7099_b752_40e2_ae3e_81fc6f513b05_Class20 ( Int) Bool)
(declare-fun type_e8ce7099_b752_40e2_ae3e_81fc6f513b05_Class25 ( Int) Bool)
(declare-fun type_e8ce7099_b752_40e2_ae3e_81fc6f513b05_Class26 ( Int) Bool)
(declare-fun type_e8ce7099_b752_40e2_ae3e_81fc6f513b05_Class23 ( Int) Bool)
(declare-fun type_e8ce7099_b752_40e2_ae3e_81fc6f513b05_Class24 ( Int) Bool)
(declare-fun oclIncludes ( Int Int) Bool)
(declare-fun type_e8ce7099_b752_40e2_ae3e_81fc6f513b05_Class54 ( Int) Bool)
(declare-fun type_e8ce7099_b752_40e2_ae3e_81fc6f513b05_Class55 ( Int) Bool)
(declare-fun type_e8ce7099_b752_40e2_ae3e_81fc6f513b05_Class52 ( Int) Bool)
(declare-fun type_e8ce7099_b752_40e2_ae3e_81fc6f513b05_Class53 ( Int) Bool)
(declare-fun ObjAt ( Int Int) Int)

;formula(s) generated
(assert (! (forall ((c1 Int)) (=> ( type_e8ce7099_b752_40e2_ae3e_81fc6f513b05_Class38 c1 )  (not (= ( class38_Class38IntAttr0 ( obj_bd4c14df_9ada_411d_a619_8f99913b70ad c1 )  )  12) ))):named l0))
(assert (! (exists ((o Int)) ( type_e8ce7099_b752_40e2_ae3e_81fc6f513b05_Class0 ( obj_bd4c14df_9ada_411d_a619_8f99913b70ad o )  ) ):named c0))
(assert (! (exists ((o Int)) (and (and (and (and (and ( type_e8ce7099_b752_40e2_ae3e_81fc6f513b05_Class1 ( obj_bd4c14df_9ada_411d_a619_8f99913b70ad o )  )  ( type_e8ce7099_b752_40e2_ae3e_81fc6f513b05_Class45 ( obj_bd4c14df_9ada_411d_a619_8f99913b70ad o )  ) ) ( type_e8ce7099_b752_40e2_ae3e_81fc6f513b05_Class12 ( obj_bd4c14df_9ada_411d_a619_8f99913b70ad o )  ) ) ( type_e8ce7099_b752_40e2_ae3e_81fc6f513b05_Class33 ( obj_bd4c14df_9ada_411d_a619_8f99913b70ad o )  ) ) ( type_e8ce7099_b752_40e2_ae3e_81fc6f513b05_Class22 ( obj_bd4c14df_9ada_411d_a619_8f99913b70ad o )  ) ) ( type_e8ce7099_b752_40e2_ae3e_81fc6f513b05_Class39 ( obj_bd4c14df_9ada_411d_a619_8f99913b70ad o )  ) )):named c1))
(assert (! (exists ((o Int)) (and (and (and (and (and (and (and (and (and ( type_e8ce7099_b752_40e2_ae3e_81fc6f513b05_Class10 ( obj_bd4c14df_9ada_411d_a619_8f99913b70ad o )  )  ( type_e8ce7099_b752_40e2_ae3e_81fc6f513b05_Class45 ( obj_bd4c14df_9ada_411d_a619_8f99913b70ad o )  ) ) ( type_e8ce7099_b752_40e2_ae3e_81fc6f513b05_Class12 ( obj_bd4c14df_9ada_411d_a619_8f99913b70ad o )  ) ) ( type_e8ce7099_b752_40e2_ae3e_81fc6f513b05_Class55 ( obj_bd4c14df_9ada_411d_a619_8f99913b70ad o )  ) ) ( type_e8ce7099_b752_40e2_ae3e_81fc6f513b05_Class33 ( obj_bd4c14df_9ada_411d_a619_8f99913b70ad o )  ) ) ( type_e8ce7099_b752_40e2_ae3e_81fc6f513b05_Class22 ( obj_bd4c14df_9ada_411d_a619_8f99913b70ad o )  ) ) ( type_e8ce7099_b752_40e2_ae3e_81fc6f513b05_Class29 ( obj_bd4c14df_9ada_411d_a619_8f99913b70ad o )  ) ) ( type_e8ce7099_b752_40e2_ae3e_81fc6f513b05_Class39 ( obj_bd4c14df_9ada_411d_a619_8f99913b70ad o )  ) ) ( type_e8ce7099_b752_40e2_ae3e_81fc6f513b05_Class50 ( obj_bd4c14df_9ada_411d_a619_8f99913b70ad o )  ) ) ( type_e8ce7099_b752_40e2_ae3e_81fc6f513b05_Class41 ( obj_bd4c14df_9ada_411d_a619_8f99913b70ad o )  ) )):named c2))
(assert (! (exists ((o Int)) ( type_e8ce7099_b752_40e2_ae3e_81fc6f513b05_Class11 ( obj_bd4c14df_9ada_411d_a619_8f99913b70ad o )  ) ):named c3))
(assert (! (exists ((o Int)) (and (and (and ( type_e8ce7099_b752_40e2_ae3e_81fc6f513b05_Class12 ( obj_bd4c14df_9ada_411d_a619_8f99913b70ad o )  )  ( type_e8ce7099_b752_40e2_ae3e_81fc6f513b05_Class33 ( obj_bd4c14df_9ada_411d_a619_8f99913b70ad o )  ) ) ( type_e8ce7099_b752_40e2_ae3e_81fc6f513b05_Class22 ( obj_bd4c14df_9ada_411d_a619_8f99913b70ad o )  ) ) ( type_e8ce7099_b752_40e2_ae3e_81fc6f513b05_Class39 ( obj_bd4c14df_9ada_411d_a619_8f99913b70ad o )  ) )):named c4))
(assert (! (exists ((o Int)) (and (and (and (and (and (and (and (and (and ( type_e8ce7099_b752_40e2_ae3e_81fc6f513b05_Class13 ( obj_bd4c14df_9ada_411d_a619_8f99913b70ad o )  )  ( type_e8ce7099_b752_40e2_ae3e_81fc6f513b05_Class45 ( obj_bd4c14df_9ada_411d_a619_8f99913b70ad o )  ) ) ( type_e8ce7099_b752_40e2_ae3e_81fc6f513b05_Class12 ( obj_bd4c14df_9ada_411d_a619_8f99913b70ad o )  ) ) ( type_e8ce7099_b752_40e2_ae3e_81fc6f513b05_Class55 ( obj_bd4c14df_9ada_411d_a619_8f99913b70ad o )  ) ) ( type_e8ce7099_b752_40e2_ae3e_81fc6f513b05_Class33 ( obj_bd4c14df_9ada_411d_a619_8f99913b70ad o )  ) ) ( type_e8ce7099_b752_40e2_ae3e_81fc6f513b05_Class22 ( obj_bd4c14df_9ada_411d_a619_8f99913b70ad o )  ) ) ( type_e8ce7099_b752_40e2_ae3e_81fc6f513b05_Class29 ( obj_bd4c14df_9ada_411d_a619_8f99913b70ad o )  ) ) ( type_e8ce7099_b752_40e2_ae3e_81fc6f513b05_Class39 ( obj_bd4c14df_9ada_411d_a619_8f99913b70ad o )  ) ) ( type_e8ce7099_b752_40e2_ae3e_81fc6f513b05_Class50 ( obj_bd4c14df_9ada_411d_a619_8f99913b70ad o )  ) ) ( type_e8ce7099_b752_40e2_ae3e_81fc6f513b05_Class41 ( obj_bd4c14df_9ada_411d_a619_8f99913b70ad o )  ) )):named c5))
(assert (! (exists ((o Int)) (and (and (and (and (and (and (and (and (and ( type_e8ce7099_b752_40e2_ae3e_81fc6f513b05_Class14 ( obj_bd4c14df_9ada_411d_a619_8f99913b70ad o )  )  ( type_e8ce7099_b752_40e2_ae3e_81fc6f513b05_Class45 ( obj_bd4c14df_9ada_411d_a619_8f99913b70ad o )  ) ) ( type_e8ce7099_b752_40e2_ae3e_81fc6f513b05_Class12 ( obj_bd4c14df_9ada_411d_a619_8f99913b70ad o )  ) ) ( type_e8ce7099_b752_40e2_ae3e_81fc6f513b05_Class55 ( obj_bd4c14df_9ada_411d_a619_8f99913b70ad o )  ) ) ( type_e8ce7099_b752_40e2_ae3e_81fc6f513b05_Class33 ( obj_bd4c14df_9ada_411d_a619_8f99913b70ad o )  ) ) ( type_e8ce7099_b752_40e2_ae3e_81fc6f513b05_Class22 ( obj_bd4c14df_9ada_411d_a619_8f99913b70ad o )  ) ) ( type_e8ce7099_b752_40e2_ae3e_81fc6f513b05_Class29 ( obj_bd4c14df_9ada_411d_a619_8f99913b70ad o )  ) ) ( type_e8ce7099_b752_40e2_ae3e_81fc6f513b05_Class39 ( obj_bd4c14df_9ada_411d_a619_8f99913b70ad o )  ) ) ( type_e8ce7099_b752_40e2_ae3e_81fc6f513b05_Class50 ( obj_bd4c14df_9ada_411d_a619_8f99913b70ad o )  ) ) ( type_e8ce7099_b752_40e2_ae3e_81fc6f513b05_Class41 ( obj_bd4c14df_9ada_411d_a619_8f99913b70ad o )  ) )):named c6))
(assert (! (exists ((o Int)) ( type_e8ce7099_b752_40e2_ae3e_81fc6f513b05_Class15 ( obj_bd4c14df_9ada_411d_a619_8f99913b70ad o )  ) ):named c7))
(assert (! (exists ((o Int)) (and (and (and (and (and ( type_e8ce7099_b752_40e2_ae3e_81fc6f513b05_Class16 ( obj_bd4c14df_9ada_411d_a619_8f99913b70ad o )  )  ( type_e8ce7099_b752_40e2_ae3e_81fc6f513b05_Class45 ( obj_bd4c14df_9ada_411d_a619_8f99913b70ad o )  ) ) ( type_e8ce7099_b752_40e2_ae3e_81fc6f513b05_Class12 ( obj_bd4c14df_9ada_411d_a619_8f99913b70ad o )  ) ) ( type_e8ce7099_b752_40e2_ae3e_81fc6f513b05_Class33 ( obj_bd4c14df_9ada_411d_a619_8f99913b70ad o )  ) ) ( type_e8ce7099_b752_40e2_ae3e_81fc6f513b05_Class22 ( obj_bd4c14df_9ada_411d_a619_8f99913b70ad o )  ) ) ( type_e8ce7099_b752_40e2_ae3e_81fc6f513b05_Class39 ( obj_bd4c14df_9ada_411d_a619_8f99913b70ad o )  ) )):named c8))
(assert (! (exists ((o Int)) ( type_e8ce7099_b752_40e2_ae3e_81fc6f513b05_Class17 ( obj_bd4c14df_9ada_411d_a619_8f99913b70ad o )  ) ):named c9))
(assert (! (exists ((o Int)) (and (and (and ( type_e8ce7099_b752_40e2_ae3e_81fc6f513b05_Class18 ( obj_bd4c14df_9ada_411d_a619_8f99913b70ad o )  )  ( type_e8ce7099_b752_40e2_ae3e_81fc6f513b05_Class25 ( obj_bd4c14df_9ada_411d_a619_8f99913b70ad o )  ) ) ( type_e8ce7099_b752_40e2_ae3e_81fc6f513b05_Class24 ( obj_bd4c14df_9ada_411d_a619_8f99913b70ad o )  ) ) ( type_e8ce7099_b752_40e2_ae3e_81fc6f513b05_Class39 ( obj_bd4c14df_9ada_411d_a619_8f99913b70ad o )  ) )):named c10))
(assert (! (exists ((o Int)) (and (and (and (and (and (and (and (and (and ( type_e8ce7099_b752_40e2_ae3e_81fc6f513b05_Class19 ( obj_bd4c14df_9ada_411d_a619_8f99913b70ad o )  )  ( type_e8ce7099_b752_40e2_ae3e_81fc6f513b05_Class45 ( obj_bd4c14df_9ada_411d_a619_8f99913b70ad o )  ) ) ( type_e8ce7099_b752_40e2_ae3e_81fc6f513b05_Class12 ( obj_bd4c14df_9ada_411d_a619_8f99913b70ad o )  ) ) ( type_e8ce7099_b752_40e2_ae3e_81fc6f513b05_Class55 ( obj_bd4c14df_9ada_411d_a619_8f99913b70ad o )  ) ) ( type_e8ce7099_b752_40e2_ae3e_81fc6f513b05_Class33 ( obj_bd4c14df_9ada_411d_a619_8f99913b70ad o )  ) ) ( type_e8ce7099_b752_40e2_ae3e_81fc6f513b05_Class22 ( obj_bd4c14df_9ada_411d_a619_8f99913b70ad o )  ) ) ( type_e8ce7099_b752_40e2_ae3e_81fc6f513b05_Class29 ( obj_bd4c14df_9ada_411d_a619_8f99913b70ad o )  ) ) ( type_e8ce7099_b752_40e2_ae3e_81fc6f513b05_Class39 ( obj_bd4c14df_9ada_411d_a619_8f99913b70ad o )  ) ) ( type_e8ce7099_b752_40e2_ae3e_81fc6f513b05_Class50 ( obj_bd4c14df_9ada_411d_a619_8f99913b70ad o )  ) ) ( type_e8ce7099_b752_40e2_ae3e_81fc6f513b05_Class41 ( obj_bd4c14df_9ada_411d_a619_8f99913b70ad o )  ) )):named c11))
(assert (! (exists ((o Int)) ( type_e8ce7099_b752_40e2_ae3e_81fc6f513b05_Class2 ( obj_bd4c14df_9ada_411d_a619_8f99913b70ad o )  ) ):named c12))
(assert (! (exists ((o Int)) ( type_e8ce7099_b752_40e2_ae3e_81fc6f513b05_Class20 ( obj_bd4c14df_9ada_411d_a619_8f99913b70ad o )  ) ):named c13))
(assert (! (exists ((o Int)) (and (and (and (and (and (and (and (and (and ( type_e8ce7099_b752_40e2_ae3e_81fc6f513b05_Class21 ( obj_bd4c14df_9ada_411d_a619_8f99913b70ad o )  )  ( type_e8ce7099_b752_40e2_ae3e_81fc6f513b05_Class45 ( obj_bd4c14df_9ada_411d_a619_8f99913b70ad o )  ) ) ( type_e8ce7099_b752_40e2_ae3e_81fc6f513b05_Class12 ( obj_bd4c14df_9ada_411d_a619_8f99913b70ad o )  ) ) ( type_e8ce7099_b752_40e2_ae3e_81fc6f513b05_Class33 ( obj_bd4c14df_9ada_411d_a619_8f99913b70ad o )  ) ) ( type_e8ce7099_b752_40e2_ae3e_81fc6f513b05_Class22 ( obj_bd4c14df_9ada_411d_a619_8f99913b70ad o )  ) ) ( type_e8ce7099_b752_40e2_ae3e_81fc6f513b05_Class16 ( obj_bd4c14df_9ada_411d_a619_8f99913b70ad o )  ) ) ( type_e8ce7099_b752_40e2_ae3e_81fc6f513b05_Class29 ( obj_bd4c14df_9ada_411d_a619_8f99913b70ad o )  ) ) ( type_e8ce7099_b752_40e2_ae3e_81fc6f513b05_Class39 ( obj_bd4c14df_9ada_411d_a619_8f99913b70ad o )  ) ) ( type_e8ce7099_b752_40e2_ae3e_81fc6f513b05_Class41 ( obj_bd4c14df_9ada_411d_a619_8f99913b70ad o )  ) ) ( type_e8ce7099_b752_40e2_ae3e_81fc6f513b05_Class51 ( obj_bd4c14df_9ada_411d_a619_8f99913b70ad o )  ) )):named c14))
(assert (! (exists ((o Int)) (and ( type_e8ce7099_b752_40e2_ae3e_81fc6f513b05_Class22 ( obj_bd4c14df_9ada_411d_a619_8f99913b70ad o )  )  ( type_e8ce7099_b752_40e2_ae3e_81fc6f513b05_Class39 ( obj_bd4c14df_9ada_411d_a619_8f99913b70ad o )  ) )):named c15))
(assert (! (exists ((o Int)) (and (and (and (and ( type_e8ce7099_b752_40e2_ae3e_81fc6f513b05_Class23 ( obj_bd4c14df_9ada_411d_a619_8f99913b70ad o )  )  ( type_e8ce7099_b752_40e2_ae3e_81fc6f513b05_Class25 ( obj_bd4c14df_9ada_411d_a619_8f99913b70ad o )  ) ) ( type_e8ce7099_b752_40e2_ae3e_81fc6f513b05_Class24 ( obj_bd4c14df_9ada_411d_a619_8f99913b70ad o )  ) ) ( type_e8ce7099_b752_40e2_ae3e_81fc6f513b05_Class39 ( obj_bd4c14df_9ada_411d_a619_8f99913b70ad o )  ) ) ( type_e8ce7099_b752_40e2_ae3e_81fc6f513b05_Class5 ( obj_bd4c14df_9ada_411d_a619_8f99913b70ad o )  ) )):named c16))
(assert (! (exists ((o Int)) (and (and ( type_e8ce7099_b752_40e2_ae3e_81fc6f513b05_Class24 ( obj_bd4c14df_9ada_411d_a619_8f99913b70ad o )  )  ( type_e8ce7099_b752_40e2_ae3e_81fc6f513b05_Class25 ( obj_bd4c14df_9ada_411d_a619_8f99913b70ad o )  ) ) ( type_e8ce7099_b752_40e2_ae3e_81fc6f513b05_Class39 ( obj_bd4c14df_9ada_411d_a619_8f99913b70ad o )  ) )):named c17))
(assert (! (exists ((o Int)) (and ( type_e8ce7099_b752_40e2_ae3e_81fc6f513b05_Class25 ( obj_bd4c14df_9ada_411d_a619_8f99913b70ad o )  )  ( type_e8ce7099_b752_40e2_ae3e_81fc6f513b05_Class39 ( obj_bd4c14df_9ada_411d_a619_8f99913b70ad o )  ) )):named c18))
(assert (! (exists ((o Int)) ( type_e8ce7099_b752_40e2_ae3e_81fc6f513b05_Class26 ( obj_bd4c14df_9ada_411d_a619_8f99913b70ad o )  ) ):named c19))
(assert (! (exists ((o Int)) ( type_e8ce7099_b752_40e2_ae3e_81fc6f513b05_Class27 ( obj_bd4c14df_9ada_411d_a619_8f99913b70ad o )  ) ):named c20))
(assert (! (exists ((o Int)) (and (and (and (and (and (and (and ( type_e8ce7099_b752_40e2_ae3e_81fc6f513b05_Class28 ( obj_bd4c14df_9ada_411d_a619_8f99913b70ad o )  )  ( type_e8ce7099_b752_40e2_ae3e_81fc6f513b05_Class45 ( obj_bd4c14df_9ada_411d_a619_8f99913b70ad o )  ) ) ( type_e8ce7099_b752_40e2_ae3e_81fc6f513b05_Class12 ( obj_bd4c14df_9ada_411d_a619_8f99913b70ad o )  ) ) ( type_e8ce7099_b752_40e2_ae3e_81fc6f513b05_Class33 ( obj_bd4c14df_9ada_411d_a619_8f99913b70ad o )  ) ) ( type_e8ce7099_b752_40e2_ae3e_81fc6f513b05_Class22 ( obj_bd4c14df_9ada_411d_a619_8f99913b70ad o )  ) ) ( type_e8ce7099_b752_40e2_ae3e_81fc6f513b05_Class29 ( obj_bd4c14df_9ada_411d_a619_8f99913b70ad o )  ) ) ( type_e8ce7099_b752_40e2_ae3e_81fc6f513b05_Class39 ( obj_bd4c14df_9ada_411d_a619_8f99913b70ad o )  ) ) ( type_e8ce7099_b752_40e2_ae3e_81fc6f513b05_Class41 ( obj_bd4c14df_9ada_411d_a619_8f99913b70ad o )  ) )):named c21))
(assert (! (exists ((o Int)) (and (and (and (and (and (and ( type_e8ce7099_b752_40e2_ae3e_81fc6f513b05_Class29 ( obj_bd4c14df_9ada_411d_a619_8f99913b70ad o )  )  ( type_e8ce7099_b752_40e2_ae3e_81fc6f513b05_Class45 ( obj_bd4c14df_9ada_411d_a619_8f99913b70ad o )  ) ) ( type_e8ce7099_b752_40e2_ae3e_81fc6f513b05_Class12 ( obj_bd4c14df_9ada_411d_a619_8f99913b70ad o )  ) ) ( type_e8ce7099_b752_40e2_ae3e_81fc6f513b05_Class33 ( obj_bd4c14df_9ada_411d_a619_8f99913b70ad o )  ) ) ( type_e8ce7099_b752_40e2_ae3e_81fc6f513b05_Class22 ( obj_bd4c14df_9ada_411d_a619_8f99913b70ad o )  ) ) ( type_e8ce7099_b752_40e2_ae3e_81fc6f513b05_Class39 ( obj_bd4c14df_9ada_411d_a619_8f99913b70ad o )  ) ) ( type_e8ce7099_b752_40e2_ae3e_81fc6f513b05_Class41 ( obj_bd4c14df_9ada_411d_a619_8f99913b70ad o )  ) )):named c22))
(assert (! (exists ((o Int)) (and (and (and ( type_e8ce7099_b752_40e2_ae3e_81fc6f513b05_Class3 ( obj_bd4c14df_9ada_411d_a619_8f99913b70ad o )  )  ( type_e8ce7099_b752_40e2_ae3e_81fc6f513b05_Class25 ( obj_bd4c14df_9ada_411d_a619_8f99913b70ad o )  ) ) ( type_e8ce7099_b752_40e2_ae3e_81fc6f513b05_Class24 ( obj_bd4c14df_9ada_411d_a619_8f99913b70ad o )  ) ) ( type_e8ce7099_b752_40e2_ae3e_81fc6f513b05_Class39 ( obj_bd4c14df_9ada_411d_a619_8f99913b70ad o )  ) )):named c23))
(assert (! (exists ((o Int)) (and ( type_e8ce7099_b752_40e2_ae3e_81fc6f513b05_Class30 ( obj_bd4c14df_9ada_411d_a619_8f99913b70ad o )  )  ( type_e8ce7099_b752_40e2_ae3e_81fc6f513b05_Class39 ( obj_bd4c14df_9ada_411d_a619_8f99913b70ad o )  ) )):named c24))
(assert (! (exists ((o Int)) (and (and (and (and (and ( type_e8ce7099_b752_40e2_ae3e_81fc6f513b05_Class31 ( obj_bd4c14df_9ada_411d_a619_8f99913b70ad o )  )  ( type_e8ce7099_b752_40e2_ae3e_81fc6f513b05_Class45 ( obj_bd4c14df_9ada_411d_a619_8f99913b70ad o )  ) ) ( type_e8ce7099_b752_40e2_ae3e_81fc6f513b05_Class12 ( obj_bd4c14df_9ada_411d_a619_8f99913b70ad o )  ) ) ( type_e8ce7099_b752_40e2_ae3e_81fc6f513b05_Class33 ( obj_bd4c14df_9ada_411d_a619_8f99913b70ad o )  ) ) ( type_e8ce7099_b752_40e2_ae3e_81fc6f513b05_Class22 ( obj_bd4c14df_9ada_411d_a619_8f99913b70ad o )  ) ) ( type_e8ce7099_b752_40e2_ae3e_81fc6f513b05_Class39 ( obj_bd4c14df_9ada_411d_a619_8f99913b70ad o )  ) )):named c25))
(assert (! (exists ((o Int)) ( type_e8ce7099_b752_40e2_ae3e_81fc6f513b05_Class32 ( obj_bd4c14df_9ada_411d_a619_8f99913b70ad o )  ) ):named c26))
(assert (! (exists ((o Int)) (and (and ( type_e8ce7099_b752_40e2_ae3e_81fc6f513b05_Class33 ( obj_bd4c14df_9ada_411d_a619_8f99913b70ad o )  )  ( type_e8ce7099_b752_40e2_ae3e_81fc6f513b05_Class22 ( obj_bd4c14df_9ada_411d_a619_8f99913b70ad o )  ) ) ( type_e8ce7099_b752_40e2_ae3e_81fc6f513b05_Class39 ( obj_bd4c14df_9ada_411d_a619_8f99913b70ad o )  ) )):named c27))
(assert (! (exists ((o Int)) (and (and (and ( type_e8ce7099_b752_40e2_ae3e_81fc6f513b05_Class34 ( obj_bd4c14df_9ada_411d_a619_8f99913b70ad o )  )  ( type_e8ce7099_b752_40e2_ae3e_81fc6f513b05_Class25 ( obj_bd4c14df_9ada_411d_a619_8f99913b70ad o )  ) ) ( type_e8ce7099_b752_40e2_ae3e_81fc6f513b05_Class24 ( obj_bd4c14df_9ada_411d_a619_8f99913b70ad o )  ) ) ( type_e8ce7099_b752_40e2_ae3e_81fc6f513b05_Class39 ( obj_bd4c14df_9ada_411d_a619_8f99913b70ad o )  ) )):named c28))
(assert (! (exists ((o Int)) (and (and ( type_e8ce7099_b752_40e2_ae3e_81fc6f513b05_Class35 ( obj_bd4c14df_9ada_411d_a619_8f99913b70ad o )  )  ( type_e8ce7099_b752_40e2_ae3e_81fc6f513b05_Class39 ( obj_bd4c14df_9ada_411d_a619_8f99913b70ad o )  ) ) ( type_e8ce7099_b752_40e2_ae3e_81fc6f513b05_Class30 ( obj_bd4c14df_9ada_411d_a619_8f99913b70ad o )  ) )):named c29))
(assert (! (exists ((o Int)) ( type_e8ce7099_b752_40e2_ae3e_81fc6f513b05_Class36 ( obj_bd4c14df_9ada_411d_a619_8f99913b70ad o )  ) ):named c30))
(assert (! (exists ((o Int)) ( type_e8ce7099_b752_40e2_ae3e_81fc6f513b05_Class37 ( obj_bd4c14df_9ada_411d_a619_8f99913b70ad o )  ) ):named c31))
(assert (! (exists ((o Int)) ( type_e8ce7099_b752_40e2_ae3e_81fc6f513b05_Class38 ( obj_bd4c14df_9ada_411d_a619_8f99913b70ad o )  ) ):named c32))
(assert (! (exists ((o Int)) ( type_e8ce7099_b752_40e2_ae3e_81fc6f513b05_Class39 ( obj_bd4c14df_9ada_411d_a619_8f99913b70ad o )  ) ):named c33))
(assert (! (exists ((o Int)) ( type_e8ce7099_b752_40e2_ae3e_81fc6f513b05_Class4 ( obj_bd4c14df_9ada_411d_a619_8f99913b70ad o )  ) ):named c34))
(assert (! (exists ((o Int)) (and (and (and (and (and (and (and (and (and ( type_e8ce7099_b752_40e2_ae3e_81fc6f513b05_Class40 ( obj_bd4c14df_9ada_411d_a619_8f99913b70ad o )  )  ( type_e8ce7099_b752_40e2_ae3e_81fc6f513b05_Class45 ( obj_bd4c14df_9ada_411d_a619_8f99913b70ad o )  ) ) ( type_e8ce7099_b752_40e2_ae3e_81fc6f513b05_Class12 ( obj_bd4c14df_9ada_411d_a619_8f99913b70ad o )  ) ) ( type_e8ce7099_b752_40e2_ae3e_81fc6f513b05_Class55 ( obj_bd4c14df_9ada_411d_a619_8f99913b70ad o )  ) ) ( type_e8ce7099_b752_40e2_ae3e_81fc6f513b05_Class33 ( obj_bd4c14df_9ada_411d_a619_8f99913b70ad o )  ) ) ( type_e8ce7099_b752_40e2_ae3e_81fc6f513b05_Class22 ( obj_bd4c14df_9ada_411d_a619_8f99913b70ad o )  ) ) ( type_e8ce7099_b752_40e2_ae3e_81fc6f513b05_Class29 ( obj_bd4c14df_9ada_411d_a619_8f99913b70ad o )  ) ) ( type_e8ce7099_b752_40e2_ae3e_81fc6f513b05_Class39 ( obj_bd4c14df_9ada_411d_a619_8f99913b70ad o )  ) ) ( type_e8ce7099_b752_40e2_ae3e_81fc6f513b05_Class50 ( obj_bd4c14df_9ada_411d_a619_8f99913b70ad o )  ) ) ( type_e8ce7099_b752_40e2_ae3e_81fc6f513b05_Class41 ( obj_bd4c14df_9ada_411d_a619_8f99913b70ad o )  ) )):named c35))
(assert (! (exists ((o Int)) (and (and (and (and (and ( type_e8ce7099_b752_40e2_ae3e_81fc6f513b05_Class41 ( obj_bd4c14df_9ada_411d_a619_8f99913b70ad o )  )  ( type_e8ce7099_b752_40e2_ae3e_81fc6f513b05_Class45 ( obj_bd4c14df_9ada_411d_a619_8f99913b70ad o )  ) ) ( type_e8ce7099_b752_40e2_ae3e_81fc6f513b05_Class12 ( obj_bd4c14df_9ada_411d_a619_8f99913b70ad o )  ) ) ( type_e8ce7099_b752_40e2_ae3e_81fc6f513b05_Class33 ( obj_bd4c14df_9ada_411d_a619_8f99913b70ad o )  ) ) ( type_e8ce7099_b752_40e2_ae3e_81fc6f513b05_Class22 ( obj_bd4c14df_9ada_411d_a619_8f99913b70ad o )  ) ) ( type_e8ce7099_b752_40e2_ae3e_81fc6f513b05_Class39 ( obj_bd4c14df_9ada_411d_a619_8f99913b70ad o )  ) )):named c36))
(assert (! (exists ((o Int)) (and ( type_e8ce7099_b752_40e2_ae3e_81fc6f513b05_Class42 ( obj_bd4c14df_9ada_411d_a619_8f99913b70ad o )  )  ( type_e8ce7099_b752_40e2_ae3e_81fc6f513b05_Class39 ( obj_bd4c14df_9ada_411d_a619_8f99913b70ad o )  ) )):named c37))
(assert (! (exists ((o Int)) ( type_e8ce7099_b752_40e2_ae3e_81fc6f513b05_Class43 ( obj_bd4c14df_9ada_411d_a619_8f99913b70ad o )  ) ):named c38))
(assert (! (exists ((o Int)) (and (and (and (and (and (and (and ( type_e8ce7099_b752_40e2_ae3e_81fc6f513b05_Class44 ( obj_bd4c14df_9ada_411d_a619_8f99913b70ad o )  )  ( type_e8ce7099_b752_40e2_ae3e_81fc6f513b05_Class45 ( obj_bd4c14df_9ada_411d_a619_8f99913b70ad o )  ) ) ( type_e8ce7099_b752_40e2_ae3e_81fc6f513b05_Class12 ( obj_bd4c14df_9ada_411d_a619_8f99913b70ad o )  ) ) ( type_e8ce7099_b752_40e2_ae3e_81fc6f513b05_Class33 ( obj_bd4c14df_9ada_411d_a619_8f99913b70ad o )  ) ) ( type_e8ce7099_b752_40e2_ae3e_81fc6f513b05_Class22 ( obj_bd4c14df_9ada_411d_a619_8f99913b70ad o )  ) ) ( type_e8ce7099_b752_40e2_ae3e_81fc6f513b05_Class29 ( obj_bd4c14df_9ada_411d_a619_8f99913b70ad o )  ) ) ( type_e8ce7099_b752_40e2_ae3e_81fc6f513b05_Class39 ( obj_bd4c14df_9ada_411d_a619_8f99913b70ad o )  ) ) ( type_e8ce7099_b752_40e2_ae3e_81fc6f513b05_Class41 ( obj_bd4c14df_9ada_411d_a619_8f99913b70ad o )  ) )):named c39))
(assert (! (exists ((o Int)) (and (and (and (and ( type_e8ce7099_b752_40e2_ae3e_81fc6f513b05_Class45 ( obj_bd4c14df_9ada_411d_a619_8f99913b70ad o )  )  ( type_e8ce7099_b752_40e2_ae3e_81fc6f513b05_Class12 ( obj_bd4c14df_9ada_411d_a619_8f99913b70ad o )  ) ) ( type_e8ce7099_b752_40e2_ae3e_81fc6f513b05_Class33 ( obj_bd4c14df_9ada_411d_a619_8f99913b70ad o )  ) ) ( type_e8ce7099_b752_40e2_ae3e_81fc6f513b05_Class22 ( obj_bd4c14df_9ada_411d_a619_8f99913b70ad o )  ) ) ( type_e8ce7099_b752_40e2_ae3e_81fc6f513b05_Class39 ( obj_bd4c14df_9ada_411d_a619_8f99913b70ad o )  ) )):named c40))
(assert (! (exists ((o Int)) (and (and ( type_e8ce7099_b752_40e2_ae3e_81fc6f513b05_Class46 ( obj_bd4c14df_9ada_411d_a619_8f99913b70ad o )  )  ( type_e8ce7099_b752_40e2_ae3e_81fc6f513b05_Class39 ( obj_bd4c14df_9ada_411d_a619_8f99913b70ad o )  ) ) ( type_e8ce7099_b752_40e2_ae3e_81fc6f513b05_Class5 ( obj_bd4c14df_9ada_411d_a619_8f99913b70ad o )  ) )):named c41))
(assert (! (exists ((o Int)) ( type_e8ce7099_b752_40e2_ae3e_81fc6f513b05_Class47 ( obj_bd4c14df_9ada_411d_a619_8f99913b70ad o )  ) ):named c42))
(assert (! (exists ((o Int)) (and (and (and (and (and (and (and (and (and ( type_e8ce7099_b752_40e2_ae3e_81fc6f513b05_Class48 ( obj_bd4c14df_9ada_411d_a619_8f99913b70ad o )  )  ( type_e8ce7099_b752_40e2_ae3e_81fc6f513b05_Class45 ( obj_bd4c14df_9ada_411d_a619_8f99913b70ad o )  ) ) ( type_e8ce7099_b752_40e2_ae3e_81fc6f513b05_Class12 ( obj_bd4c14df_9ada_411d_a619_8f99913b70ad o )  ) ) ( type_e8ce7099_b752_40e2_ae3e_81fc6f513b05_Class55 ( obj_bd4c14df_9ada_411d_a619_8f99913b70ad o )  ) ) ( type_e8ce7099_b752_40e2_ae3e_81fc6f513b05_Class33 ( obj_bd4c14df_9ada_411d_a619_8f99913b70ad o )  ) ) ( type_e8ce7099_b752_40e2_ae3e_81fc6f513b05_Class22 ( obj_bd4c14df_9ada_411d_a619_8f99913b70ad o )  ) ) ( type_e8ce7099_b752_40e2_ae3e_81fc6f513b05_Class29 ( obj_bd4c14df_9ada_411d_a619_8f99913b70ad o )  ) ) ( type_e8ce7099_b752_40e2_ae3e_81fc6f513b05_Class39 ( obj_bd4c14df_9ada_411d_a619_8f99913b70ad o )  ) ) ( type_e8ce7099_b752_40e2_ae3e_81fc6f513b05_Class50 ( obj_bd4c14df_9ada_411d_a619_8f99913b70ad o )  ) ) ( type_e8ce7099_b752_40e2_ae3e_81fc6f513b05_Class41 ( obj_bd4c14df_9ada_411d_a619_8f99913b70ad o )  ) )):named c43))
(assert (! (exists ((o Int)) (and (and (and (and (and (and (and (and (and ( type_e8ce7099_b752_40e2_ae3e_81fc6f513b05_Class49 ( obj_bd4c14df_9ada_411d_a619_8f99913b70ad o )  )  ( type_e8ce7099_b752_40e2_ae3e_81fc6f513b05_Class45 ( obj_bd4c14df_9ada_411d_a619_8f99913b70ad o )  ) ) ( type_e8ce7099_b752_40e2_ae3e_81fc6f513b05_Class12 ( obj_bd4c14df_9ada_411d_a619_8f99913b70ad o )  ) ) ( type_e8ce7099_b752_40e2_ae3e_81fc6f513b05_Class55 ( obj_bd4c14df_9ada_411d_a619_8f99913b70ad o )  ) ) ( type_e8ce7099_b752_40e2_ae3e_81fc6f513b05_Class33 ( obj_bd4c14df_9ada_411d_a619_8f99913b70ad o )  ) ) ( type_e8ce7099_b752_40e2_ae3e_81fc6f513b05_Class22 ( obj_bd4c14df_9ada_411d_a619_8f99913b70ad o )  ) ) ( type_e8ce7099_b752_40e2_ae3e_81fc6f513b05_Class29 ( obj_bd4c14df_9ada_411d_a619_8f99913b70ad o )  ) ) ( type_e8ce7099_b752_40e2_ae3e_81fc6f513b05_Class39 ( obj_bd4c14df_9ada_411d_a619_8f99913b70ad o )  ) ) ( type_e8ce7099_b752_40e2_ae3e_81fc6f513b05_Class50 ( obj_bd4c14df_9ada_411d_a619_8f99913b70ad o )  ) ) ( type_e8ce7099_b752_40e2_ae3e_81fc6f513b05_Class41 ( obj_bd4c14df_9ada_411d_a619_8f99913b70ad o )  ) )):named c44))
(assert (! (exists ((o Int)) (and ( type_e8ce7099_b752_40e2_ae3e_81fc6f513b05_Class5 ( obj_bd4c14df_9ada_411d_a619_8f99913b70ad o )  )  ( type_e8ce7099_b752_40e2_ae3e_81fc6f513b05_Class39 ( obj_bd4c14df_9ada_411d_a619_8f99913b70ad o )  ) )):named c45))
(assert (! (exists ((o Int)) (and (and (and (and (and (and (and (and ( type_e8ce7099_b752_40e2_ae3e_81fc6f513b05_Class50 ( obj_bd4c14df_9ada_411d_a619_8f99913b70ad o )  )  ( type_e8ce7099_b752_40e2_ae3e_81fc6f513b05_Class45 ( obj_bd4c14df_9ada_411d_a619_8f99913b70ad o )  ) ) ( type_e8ce7099_b752_40e2_ae3e_81fc6f513b05_Class12 ( obj_bd4c14df_9ada_411d_a619_8f99913b70ad o )  ) ) ( type_e8ce7099_b752_40e2_ae3e_81fc6f513b05_Class55 ( obj_bd4c14df_9ada_411d_a619_8f99913b70ad o )  ) ) ( type_e8ce7099_b752_40e2_ae3e_81fc6f513b05_Class33 ( obj_bd4c14df_9ada_411d_a619_8f99913b70ad o )  ) ) ( type_e8ce7099_b752_40e2_ae3e_81fc6f513b05_Class22 ( obj_bd4c14df_9ada_411d_a619_8f99913b70ad o )  ) ) ( type_e8ce7099_b752_40e2_ae3e_81fc6f513b05_Class29 ( obj_bd4c14df_9ada_411d_a619_8f99913b70ad o )  ) ) ( type_e8ce7099_b752_40e2_ae3e_81fc6f513b05_Class39 ( obj_bd4c14df_9ada_411d_a619_8f99913b70ad o )  ) ) ( type_e8ce7099_b752_40e2_ae3e_81fc6f513b05_Class41 ( obj_bd4c14df_9ada_411d_a619_8f99913b70ad o )  ) )):named c46))
(assert (! (exists ((o Int)) (and (and (and (and (and (and ( type_e8ce7099_b752_40e2_ae3e_81fc6f513b05_Class51 ( obj_bd4c14df_9ada_411d_a619_8f99913b70ad o )  )  ( type_e8ce7099_b752_40e2_ae3e_81fc6f513b05_Class45 ( obj_bd4c14df_9ada_411d_a619_8f99913b70ad o )  ) ) ( type_e8ce7099_b752_40e2_ae3e_81fc6f513b05_Class12 ( obj_bd4c14df_9ada_411d_a619_8f99913b70ad o )  ) ) ( type_e8ce7099_b752_40e2_ae3e_81fc6f513b05_Class33 ( obj_bd4c14df_9ada_411d_a619_8f99913b70ad o )  ) ) ( type_e8ce7099_b752_40e2_ae3e_81fc6f513b05_Class22 ( obj_bd4c14df_9ada_411d_a619_8f99913b70ad o )  ) ) ( type_e8ce7099_b752_40e2_ae3e_81fc6f513b05_Class16 ( obj_bd4c14df_9ada_411d_a619_8f99913b70ad o )  ) ) ( type_e8ce7099_b752_40e2_ae3e_81fc6f513b05_Class39 ( obj_bd4c14df_9ada_411d_a619_8f99913b70ad o )  ) )):named c47))
(assert (! (exists ((o Int)) (and (and (and (and (and ( type_e8ce7099_b752_40e2_ae3e_81fc6f513b05_Class52 ( obj_bd4c14df_9ada_411d_a619_8f99913b70ad o )  )  ( type_e8ce7099_b752_40e2_ae3e_81fc6f513b05_Class45 ( obj_bd4c14df_9ada_411d_a619_8f99913b70ad o )  ) ) ( type_e8ce7099_b752_40e2_ae3e_81fc6f513b05_Class12 ( obj_bd4c14df_9ada_411d_a619_8f99913b70ad o )  ) ) ( type_e8ce7099_b752_40e2_ae3e_81fc6f513b05_Class33 ( obj_bd4c14df_9ada_411d_a619_8f99913b70ad o )  ) ) ( type_e8ce7099_b752_40e2_ae3e_81fc6f513b05_Class22 ( obj_bd4c14df_9ada_411d_a619_8f99913b70ad o )  ) ) ( type_e8ce7099_b752_40e2_ae3e_81fc6f513b05_Class39 ( obj_bd4c14df_9ada_411d_a619_8f99913b70ad o )  ) )):named c48))
(assert (! (exists ((o Int)) ( type_e8ce7099_b752_40e2_ae3e_81fc6f513b05_Class53 ( obj_bd4c14df_9ada_411d_a619_8f99913b70ad o )  ) ):named c49))
(assert (! (exists ((o Int)) ( type_e8ce7099_b752_40e2_ae3e_81fc6f513b05_Class54 ( obj_bd4c14df_9ada_411d_a619_8f99913b70ad o )  ) ):named c50))
(assert (! (exists ((o Int)) (and (and (and (and (and (and (and ( type_e8ce7099_b752_40e2_ae3e_81fc6f513b05_Class55 ( obj_bd4c14df_9ada_411d_a619_8f99913b70ad o )  )  ( type_e8ce7099_b752_40e2_ae3e_81fc6f513b05_Class45 ( obj_bd4c14df_9ada_411d_a619_8f99913b70ad o )  ) ) ( type_e8ce7099_b752_40e2_ae3e_81fc6f513b05_Class12 ( obj_bd4c14df_9ada_411d_a619_8f99913b70ad o )  ) ) ( type_e8ce7099_b752_40e2_ae3e_81fc6f513b05_Class33 ( obj_bd4c14df_9ada_411d_a619_8f99913b70ad o )  ) ) ( type_e8ce7099_b752_40e2_ae3e_81fc6f513b05_Class22 ( obj_bd4c14df_9ada_411d_a619_8f99913b70ad o )  ) ) ( type_e8ce7099_b752_40e2_ae3e_81fc6f513b05_Class29 ( obj_bd4c14df_9ada_411d_a619_8f99913b70ad o )  ) ) ( type_e8ce7099_b752_40e2_ae3e_81fc6f513b05_Class39 ( obj_bd4c14df_9ada_411d_a619_8f99913b70ad o )  ) ) ( type_e8ce7099_b752_40e2_ae3e_81fc6f513b05_Class41 ( obj_bd4c14df_9ada_411d_a619_8f99913b70ad o )  ) )):named c51))
(assert (! (exists ((o Int)) ( type_e8ce7099_b752_40e2_ae3e_81fc6f513b05_Class6 ( obj_bd4c14df_9ada_411d_a619_8f99913b70ad o )  ) ):named c52))
(assert (! (exists ((o Int)) (and (and (and (and (and (and (and (and (and ( type_e8ce7099_b752_40e2_ae3e_81fc6f513b05_Class7 ( obj_bd4c14df_9ada_411d_a619_8f99913b70ad o )  )  ( type_e8ce7099_b752_40e2_ae3e_81fc6f513b05_Class45 ( obj_bd4c14df_9ada_411d_a619_8f99913b70ad o )  ) ) ( type_e8ce7099_b752_40e2_ae3e_81fc6f513b05_Class12 ( obj_bd4c14df_9ada_411d_a619_8f99913b70ad o )  ) ) ( type_e8ce7099_b752_40e2_ae3e_81fc6f513b05_Class55 ( obj_bd4c14df_9ada_411d_a619_8f99913b70ad o )  ) ) ( type_e8ce7099_b752_40e2_ae3e_81fc6f513b05_Class33 ( obj_bd4c14df_9ada_411d_a619_8f99913b70ad o )  ) ) ( type_e8ce7099_b752_40e2_ae3e_81fc6f513b05_Class22 ( obj_bd4c14df_9ada_411d_a619_8f99913b70ad o )  ) ) ( type_e8ce7099_b752_40e2_ae3e_81fc6f513b05_Class29 ( obj_bd4c14df_9ada_411d_a619_8f99913b70ad o )  ) ) ( type_e8ce7099_b752_40e2_ae3e_81fc6f513b05_Class39 ( obj_bd4c14df_9ada_411d_a619_8f99913b70ad o )  ) ) ( type_e8ce7099_b752_40e2_ae3e_81fc6f513b05_Class50 ( obj_bd4c14df_9ada_411d_a619_8f99913b70ad o )  ) ) ( type_e8ce7099_b752_40e2_ae3e_81fc6f513b05_Class41 ( obj_bd4c14df_9ada_411d_a619_8f99913b70ad o )  ) )):named c53))
(assert (! (exists ((o Int)) (and ( type_e8ce7099_b752_40e2_ae3e_81fc6f513b05_Class8 ( obj_bd4c14df_9ada_411d_a619_8f99913b70ad o )  )  ( type_e8ce7099_b752_40e2_ae3e_81fc6f513b05_Class39 ( obj_bd4c14df_9ada_411d_a619_8f99913b70ad o )  ) )):named c54))
(assert (! (exists ((o Int)) ( type_e8ce7099_b752_40e2_ae3e_81fc6f513b05_Class9 ( obj_bd4c14df_9ada_411d_a619_8f99913b70ad o )  ) ):named c55))

 ;end of formula 